p cnf 100 20
x 6 -9 11 16 -17 18 19 -20 -21 22 23 26 -27 -28 -29 -31 -32 35 36 39 41 43 -45 46 48 -50 52 -55 56 59 -62 -65 66 69 -70 71 -73 74 76 78 -79 -80 81 86 -89 -92 -93 94 95 96 97 -99 -100 0
x 1 -2 -3 4 -5 6 -8 10 -12 -16 -20 -22 23 -27 -28 -29 -30 31 33 35 37 -38 39 41 42 43 -44 -45 -46 -47 -50 -51 -52 54 -55 -59 -60 61 63 65 -66 68 73 74 79 -80 -82 83 -84 85 -90 -91 -93 -95 97 -98 99 100 0
x -4 -5 -7 -9 13 16 -17 19 20 -21 -22 23 -24 -26 -27 28 -29 30 31 -33 -34 -35 -36 37 -38 42 44 -45 -46 -51 -52 -54 57 -59 61 -62 64 -66 -67 68 69 -71 74 80 -81 83 85 90 95 -96 98 0
x 4 5 10 16 19 -21 23 24 -25 26 32 -33 -34 -36 37 -39 -40 -44 -45 -46 48 -49 -51 52 -53 -58 60 61 -64 -65 66 -67 69 71 -72 74 -76 -77 -78 79 80 -81 -84 90 -93 95 98 -99 100 0
x -2 -3 6 9 10 11 12 -14 -20 -21 -22 23 25 31 -33 -34 36 -39 40 41 -42 -43 -45 46 -47 -50 -52 -53 56 57 -62 -67 -69 70 73 76 78 -81 -82 -85 -88 -90 -95 98 -100 0
x -2 3 4 -5 6 -7 9 -11 12 -16 -25 -26 31 35 36 38 -41 42 -44 47 48 -50 -54 55 -58 -61 62 -63 65 69 72 74 -76 77 -83 88 -94 -95 -96 99 100 0
x 2 4 -7 8 -11 -12 -14 16 -18 -19 -20 -22 -23 24 26 27 28 -29 -31 33 35 38 39 40 43 -45 -46 47 48 -49 -52 53 -54 -58 60 -61 -63 -66 68 69 70 74 75 -76 -77 -78 -82 83 -86 88 -89 0
x 1 -2 -3 4 5 -6 -7 -8 12 13 15 17 -18 19 21 -22 24 29 -30 31 -35 36 -37 -38 39 44 -45 -47 -48 -49 50 52 53 -54 -55 56 -59 -63 66 -67 -68 72 74 76 -77 78 83 -85 86 -90 92 93 94 95 97 -98 99 0
x -1 -3 4 5 7 -9 -16 17 -18 -19 23 27 -28 -29 -32 34 -35 -37 -38 -41 -42 43 44 47 -48 50 -52 -53 54 55 58 59 60 61 -62 64 65 -66 -67 69 -70 73 -74 -75 -76 78 79 81 82 -85 -87 -91 -92 93 -94 -96 -97 98 -99 0
x -1 -2 -4 -11 12 14 18 20 -22 23 26 -27 -28 -33 -34 -36 -37 38 -39 40 42 -43 -45 46 -50 55 57 -58 62 -63 -64 65 66 67 68 -69 72 -73 74 -78 -81 85 -88 -89 92 -96 -97 99 0
x 1 -5 6 -8 -11 -13 -15 16 -19 23 -24 -25 29 -30 31 32 -33 34 35 36 37 -40 41 -42 43 -45 -47 -48 51 -52 53 -55 -56 -58 -60 62 -63 -65 -67 -68 -69 72 73 -74 -75 76 -77 -78 -79 -80 -84 -88 -89 90 -92 -93 94 -97 0
x 2 -6 -7 -8 10 12 -13 14 15 -18 -20 -21 -23 -25 -33 -35 -38 -39 -42 -44 -46 -47 48 -51 -52 -53 -54 -56 57 58 59 63 64 -65 -66 -67 -68 70 -71 -72 -74 -75 -78 79 80 84 -86 87 -88 -89 -90 -91 -92 93 -94 -96 98 0
x -1 -3 4 6 -7 -9 11 12 13 -14 -16 18 -19 20 -21 -23 24 28 29 -31 -39 -44 -45 46 47 48 51 -52 -54 57 -59 -62 63 64 65 66 67 68 -69 -70 71 72 73 -74 -75 -77 81 84 -86 -90 94 -95 -96 98 -100 0
x 3 8 10 -11 -12 18 -23 25 -27 29 -31 33 -34 35 36 43 44 -46 47 -48 50 -53 56 -57 58 -60 -62 66 67 68 69 -70 71 -72 -77 78 -79 -80 82 84 -89 -92 -94 96 -97 98 99 100 0
x -2 3 6 -7 8 -9 -10 -11 15 16 -17 -18 20 -22 24 -29 30 -32 37 -44 47 -48 49 -51 -54 -55 63 -64 -67 -68 69 71 72 74 -77 78 80 82 -83 -87 88 90 91 93 94 96 97 -98 99 0
x 1 4 5 8 9 -10 12 -16 -17 -18 19 -20 -21 -22 -23 -24 26 -27 -28 29 -30 -31 -33 -35 37 -38 39 40 -41 -42 43 44 47 48 -56 -57 -58 59 -60 61 69 -70 72 -74 -75 -76 77 78 80 -81 83 -84 -85 -90 -92 -96 98 -99 0
x -1 3 4 -5 -6 7 9 -10 -13 -14 -15 16 17 -19 20 -23 -25 -26 -27 -29 -31 32 34 -37 40 -44 -46 49 52 -54 56 57 58 -59 -60 61 -62 -64 -66 68 -69 -71 -74 75 78 84 -85 -87 -88 -92 93 94 -97 -98 0
x 3 -4 -5 6 -7 12 15 -16 -17 -18 20 23 29 30 -34 36 -37 38 -39 40 41 -43 45 46 48 49 -52 56 -58 60 -61 63 65 -68 -69 71 -72 -74 75 -76 -78 -79 -80 81 -83 -84 85 87 89 -90 -91 -92 -98 0
x -1 4 5 6 -8 -9 10 -11 -12 14 -15 -16 18 -19 -21 24 25 -27 -29 -30 -31 -33 35 36 37 -39 40 47 -48 -52 -56 -60 61 62 64 -67 75 78 -79 -84 85 87 91 93 -94 -95 96 -98 0
x 5 -6 7 8 10 13 -14 17 -20 -22 23 24 26 -28 30 34 -35 -36 -38 -43 -44 45 -48 -54 -55 57 -59 -64 66 -67 -68 -70 71 -72 73 -74 -76 78 79 82 83 85 86 -89 -91 92 -93 94 95 -100 0
g -40